
 &CONTROL
    prefix='diamond',
    calculation = 'scf'
    restart_mode='from_scratch',
    pseudo_dir = '/home/max/LabQSM/pseudo/'
    outdir = './SCRATCH'
 /
 &SYSTEM
    ibrav = 2, 
    celldm(1) = 6.7402778
    nat = 2, 
    ntyp = 1,
    ecutwfc =  40.0
 /
 &ELECTRONS
    mixing_mode = 'plain'
    mixing_beta = 0.7
    conv_thr =  1.0d-8
 /
ATOMIC_SPECIES
 C   12.011   C.pz-vbc.UPF
ATOMIC_POSITIONS (alat)
 C 0.00 0.00 0.00
 C 0.25 0.25 0.25
K_POINTS {automatic}
 4 4 4   0 0 0 

