
 &PROJWFC
    prefix="guanine_LDA"
    degauss = 0.01
    outdir = "./SCRATCH"
 /
