
 &INPUTPP
    prefix   = 'guanine_LDA'
    outdir   = './SCRATCH'
    filplot  = 'wfc_G_LDA_b28.pp'
    plot_num = 7
    kpoint   = 1
    kband    = 28
    lsign    = .TRUE.
 /

 &PLOT
    nfile    = 1
    filepp(1)= 'wfc_G_LDA_b28.pp'
    iflag    = 3
    output_format = 5
    fileout  = 'wfc_G_LDA_b28.xsf'
 /

    !x0(1) = -0.3,   x0(2) =-0.5,   x0(3) = 0.0

