
 &CONTROL
    prefix='@MOLECULE_NAME@',
    calculation = 'relax'
    restart_mode='from_scratch',
    pseudo_dir = '/opt/QE/pseudo/'
    outdir = './SCRATCH'
    tprnfor = .true.
    forc_conv_thr = 1.0d-4
    etot_conv_thr = 1.0d-5
    verbosity = "high"
 /
 &SYSTEM
    ibrav = 1, 
    celldm(1) = 25.00
    ntyp = 3
    nat =  @NAT@, 
    ecutwfc =  60.0
    input_dft = "PBE"
 /
 &ELECTRONS
    mixing_mode = 'plain'
    mixing_beta = 0.7
    conv_thr =  1.0d-8
 /
 &IONS
    ion_dynamics = "bfgs"
 /
ATOMIC_SPECIES
 H   1.0  H.pz-vbc.UPF
 C   1.0  C.pz-vbc.UPF
 O   1.0  O.pz-mt.UPF
ATOMIC_POSITIONS (angstrom)

 @atomic_coordinates@

K_POINTS {gamma}
 

      
