
 &CONTROL
    prefix='guanine_LDA_MT',
    calculation = 'scf'
    restart_mode='from_scratch',
    pseudo_dir = '/opt/QE/pseudo/'
    outdir = './SCRATCH'
    tprnfor = .true.
    verbosity = "high"
 /
 &SYSTEM
    ibrav = 8, 
    celldm(1) = 25.00
    celldm(2) =  1.0
    celldm(3) =  0.8
    nat = 16, 
    ntyp = 4,
    ecutwfc =  50.0
    assume_isolated = 'martyna-tuckerman'
    tot_charge=+1
    tot_magnetization=+1
    nspin=2
 /
 &ELECTRONS
    mixing_mode = 'plain'
    mixing_beta = 0.7
    conv_thr =  1.0d-8
 /
ATOMIC_SPECIES
 H   1.0  H.pz-vbc.UPF
 C   1.0  C.pz-vbc.UPF
 N   1.0  N.pz-vbc.UPF
 O   1.0  O.pz-mt.UPF
ATOMIC_POSITIONS (angstrom)
C       -2.926424287   1.428779664   0.000000000
C       -2.224650135   2.673203985   0.000000000
C       -0.830468341   2.654258177   0.000000000
C       -0.621177214   0.448482222   0.000000000
C       -1.623472677   4.717246292   0.000000000
N       -2.702731219   3.968679877   0.000000000
N       -0.460338645   3.973163314   0.000000000
N       -1.987214655   0.348188756   0.000000000
N        0.021480917   1.600772184   0.000000000
N        0.099798124  -0.703590363   0.000000000
O       -4.113135247   1.171013661   0.000000000
H       -0.332460571  -1.620052648   0.000000000
H        1.112223940  -0.616056782   0.000000000
H       -2.445090932  -0.567838381   0.000000000
H        0.501622657   4.310603567   0.000000000
H       -1.609161715   5.807956475   0.000000000
K_POINTS {gamma}
 

      
